(set-info :source |
 Generated by Alive 0.1
 More info in N. P. Lopes, D. Menendez, S. Nagarakatte, J. Regehr.
 Provably Correct Peephole Optimizations with Alive. In PLDI'15.
|)

(set-info :status unknown)
(declare-fun C () (_ BitVec 9))
(assert
 (let (($x60831 (bvult C (_ bv9 9))))
 (let (($x111621 (not $x60831)))
 (and $x60831 $x60831 $x111621))))
(check-sat)
